(declare-const x String)
(declare-const y String)
(declare-const m String)
(declare-const n String)
(assert (str.in.re x (re.+ (re.range "0" "9"))))
(assert (= 4 (str.to.int x)))
(assert (not (= x "11")))
(assert (not (= x "0000")))
(assert (not (= x "ffPP")))
(assert (not (= x "<<::")))
(assert (not (= x "IIJJ")))
(assert (not (= x "yy==mm")))
(assert (not (= x "'''\r''\r'''")))
(assert (not (= x "9999")))
(assert (not (= x "7777")))
(check-sat)
(get-model)
